%%%mzn-stat: initTime=0.013877792
%%%mzn-stat: objective=277
%%%mzn-stat: nodes=819
%%%mzn-stat: restarts=0
%%%mzn-stat: peakDepth=543
%%%mzn-stat: solveTime=0.103246213
%%%mzn-stat: variables=1544
%%%mzn-stat: propagators=1186
%%%mzn-stat: failures=276
%%%mzn-stat: propagations=164417
%%%mzn-stat: nogoods=276
%%%mzn-stat: AverageConflictSize=2
%%%mzn-stat: NumUnitNogoodsLearned=276
%%%mzn-stat: AverageLearnedNogoodLength=1
%%%mzn-stat: AverageBacktrackAmount=0
%%%mzn-stat: AverageLbd=1
%%%mzn-stat-end
maxleg = 277;
succ = array1d(1..50,[35, 1, 26, 13, 3, 8, 33, 38, 6, 39, 21, 45, 29, 50, 11, 43, 10, 48, 25, 9, 23, 7, 41, 31, 17, 12, 2, 22, 16, 19, 14, 49, 27, 4, 15, 5, 24, 36, 47, 44, 37, 28, 46, 18, 30, 40, 32, 42, 34, 20]);
% time elapsed: 1.70 s
----------
==========
% time elapsed: 1.70 s
%%%mzn-stat: initTime=0.013877792
%%%mzn-stat: objective=277
%%%mzn-stat: nodes=819
%%%mzn-stat: restarts=0
%%%mzn-stat: peakDepth=543
%%%mzn-stat: solveTime=0.103255244
%%%mzn-stat: variables=1544
%%%mzn-stat: propagators=1186
%%%mzn-stat: failures=276
%%%mzn-stat: propagations=164417
%%%mzn-stat: nogoods=276
%%%mzn-stat: AverageConflictSize=2
%%%mzn-stat: NumUnitNogoodsLearned=276
%%%mzn-stat: AverageLearnedNogoodLength=1
%%%mzn-stat: AverageBacktrackAmount=0
%%%mzn-stat: AverageLbd=1
%%%mzn-stat-end
